NAME          COPTPROB
OBJSENSE
  MIN
ROWS
 N  __OBJ___
 L  C53     
 L  C71     
 L  C121    
 L  C166    
 L  C167    
 L  C169    
COLUMNS
    MARKER    'MARKER'                 'INTORG'
    x38       __OBJ___  30
    x38       C53       -1
    x38       C169      -1
    x640      __OBJ___  23
    x640      C53       -1
    x640      C166      -1
    x2567     __OBJ___  54
    x2567     C121      -1
    x2567     C167      -1
    x2614     __OBJ___  28
    x2614     C166      -1
    x2614     C167      -1
    x3174     __OBJ___  62
    x3174     C71       -1
    x3174     C121      -1
    x3842     __OBJ___  3
    x3842     C53       -1
    x3961     __OBJ___  44
    x3961     C71       -1
    x4073     __OBJ___  59
    x4073     C71       -1
    x4073     C169      -1
    MARKER    'MARKER'                 'INTEND'
RHS
    RHS       __OBJ___  -2348
    RHS       C53       -1
    RHS       C71       -1
    RHS       C121      -1
    RHS       C166      -1
    RHS       C167      -1
    RHS       C169      -1
BOUNDS
 UP BOUND     x38       1
 UP BOUND     x640      1
 UP BOUND     x2567     1
 UP BOUND     x2614     1
 UP BOUND     x3174     1
 UP BOUND     x3842     1
 UP BOUND     x3961     1
 UP BOUND     x4073     1
ENDATA
